(declare-fun args_1_8 () (_ BitVec 8))
(declare-fun args_3_8 () (_ BitVec 8))
(declare-fun args_2_8 () (_ BitVec 8))
(declare-fun args_0_8 () (_ BitVec 8))
(assert (let ((a!1 (concat (concat (ite (= #x00 args_3_8) #b1 #b0) #b1)
                   (ite (= #x00 args_2_8) #b1 #b0)))
      (a!4 (concat (concat (ite (= #x00 args_2_8) #b1 #b0) #b101)
                   (ite (= #x00 args_0_8) #b1 #b0)))
      (a!6 (bvadd #b111 (concat #b01 (ite (= #x00 args_0_8) #b1 #b0))))
      (a!9 (concat (concat #b111111111111111111111111111111111111111111111111111111111
                           (ite (= #x2f args_3_8) #b0 #b1))
                   #b1))
      (a!12 (concat (concat #b000000000000000011111111111111111111111100000000000000001
                            (ite (= #x00 args_3_8) #b1 #b0))
                    #b1))
      (a!17 (concat (concat #b1 (ite (= #x00 args_2_8) #b1 #b0)) #b101))
      (a!21 (bvadd #xf (concat #b101 (ite (= #x00 args_0_8) #b1 #b0))))
      (a!22 (bvadd #b11 (concat #b1 (ite (= #x00 args_0_8) #b1 #b0))))
      (a!24 (bvxor (bvadd #b1 (ite (= #x00 args_0_8) #b1 #b0))
                   (ite (= #x00 args_0_8) #b1 #b0))))
(let ((a!2 (bvadd #b1111111
                  (concat (concat a!1 #b101) (ite (= #x00 args_0_8) #b1 #b0))))
      (a!5 (or (not (= #x2f args_2_8))
               (= ((_ extract 4 4) (bvadd #b11111 a!4))
                  (ite (= #x00 args_2_8) #b1 #b0))))
      (a!7 (ite (or (not (= #x2f args_1_8)) (= #b0 ((_ extract 2 2) a!6)))
                (ite (= #x2f args_0_8) #x000000000000003f #x0000000000000040)
                #x000000000000003d))
      (a!10 (concat (concat a!9 (ite (= #x2f args_2_8) #b0 #b1)) #b1))
      (a!13 (concat (concat a!12 (ite (= #x00 args_2_8) #b1 #b0)) #b101))
      (a!18 (bvadd #b111111 (concat a!17 (ite (= #x00 args_0_8) #b1 #b0))))
      (a!20 (bvnot (bvxor ((_ extract 4 4) (bvadd #b11111 a!4))
                          (ite (= #x00 args_2_8) #b1 #b0)))))
(let ((a!3 (or (not (= #x2f args_3_8))
               (= ((_ extract 6 6) a!2) (ite (= #x00 args_3_8) #b1 #b0))))
      (a!11 (concat (concat a!10 (ite (= #x2f args_1_8) #b0 #b1)) #b1))
      (a!14 (bvadd #xffffffffffffffff
                   (concat a!13 (ite (= #x00 args_0_8) #b1 #b0))))
      (a!16 (bvnot (bvxor ((_ extract 6 6) a!2) (ite (= #x00 args_3_8) #b1 #b0)))))
(let ((a!8 (bvadd #x0000000000000040
                  (bvmul #xffffffffffffffff
                         (ite a!3
                              (ite a!5 a!7 #x000000000000003b)
                              #x0000000000000039))))
      (a!15 (concat (concat (bvnot ((_ extract 63 48) a!14))
                            ((_ extract 47 24) a!14))
                    (bvnot ((_ extract 23 8) a!14)))))
(let ((a!19 (concat (concat (concat a!15 ((_ extract 7 7) a!14)) a!16)
                    ((_ extract 5 5) a!18))))
(let ((a!23 (concat (concat (concat (concat a!19 a!20) ((_ extract 3 3) a!21))
                            (bvnot ((_ extract 2 2) a!6)))
                    ((_ extract 1 1) a!22))))
(let ((a!25 (bvor (concat a!11 (ite (= #x2f args_0_8) #b0 #b1))
                  (concat a!23 (bvnot a!24)))))
  (and (bvsge #x0000000000000006 a!8)
       (not (= #x0000000000000000 (bvnot a!25)))
       (not (= #x2d args_1_8))
       (not (= #x2d args_2_8))
       (not (= #x2d args_3_8))
       (not (= #x00 args_1_8))
       (= #b00 ((_ extract 7 6) args_1_8)))))))))))
(minimize (bvadd #x000000000041c65c
       (bvshl ((_ zero_extend 32) ((_ zero_extend 24) args_1_8))
              #x0000000000000002)))
(check-sat)